100
32
7
12
16
5
26
16
29
3
1
12
11
25
10
27
10
1
14
5
6
20
12
2
14
18
3
22
4
4
3
1
24
1
1
24
1
2
1
17
4
8
17
7
22
17
18
18
22
1
14
3
1
2
1
6
3
23
5
4
3
4
1
3
5
20
3
1
17
3
4
2
25
2
2
5
2
17
24
3
2
1
1
5
4
3
22
1
18
2
8
3
3
17
6
3
6
1
3
5
3
1